QPLIB_2430
LCQ
minimize
125 # number of variables
92 # number of constraints
0.0 # default value for linear coefficients in objective
1 # number of non-default linear coefficients in objective
42 -1.0
0.0 # objective constant
279 # number of quadratic terms in all constraints
28 32673 -1074790399 2.0
28 32673 -1074790399 -2.0
28 32673 -1074790399 -2.0
28 32673 -1074790399 -2.0
28 32673 -1074790399 -2.0
28 32673 -1074790399 -2.0
29 1 1 2.0
29 1 1 -2.0
29 1 1 -2.0
29 1 1 -2.0
29 1 1 -2.0
29 1 1 -2.0
30 1 1 2.0
30 1 1 -2.0
30 1 1 -2.0
30 1 1 -2.0
30 1 1 -2.0
30 1 1 -2.0
31 1010 1 2.0
31 1010 1 -2.0
31 1010 1 -2.0
31 1010 1 -2.0
31 1010 1 -2.0
31 1010 1 -2.0
32 1 1 2.0
32 1 1 -2.0
32 1 1 -2.0
32 1 1 -2.0
32 1 1 -2.0
32 1 1 -2.0
33 1 -135083143 -2.0
34 32673 1 -2.0
35 1 -135083143 -2.0
36 32673 1 -2.0
37 1 1 -2.0
38 1 1 -0.2
39 1 1 -0.2
40 1 1 -0.2
41 1 1 -0.2
42 1 1 -0.2
43 1 1 -2.0
43 1 1 -2.0
43 1 1 -2.0
43 1 1 -2.0
43 1 1 -2.0
44 1 1 2.0
44 1 1 -2.0
44 1 1 -2.0
44 1 1 -2.0
44 1 1 -2.0
44 1 1 -2.0
45 1 1 2.0
45 1 1 -2.0
45 1 1 -2.0
45 1 1 -2.0
45 1 1 -2.0
45 1 1 -2.0
46 1 1 2.0
46 1 1 -2.0
46 1 1 -2.0
46 1 1 -2.0
46 1 1 -2.0
46 1 1 -2.0
47 1 1 2.0
47 1 1 -2.0
47 1 1 -2.0
47 1 1 -2.0
47 1 1 -2.0
47 1 1 -2.0
48 1 1 2.0
48 1 1 -2.0
48 1 1 -2.0
48 1 1 -2.0
48 1 1 -2.0
48 1 1 -2.0
49 1 1 2.0
49 1 1 -2.0
49 1 1 -2.0
49 1 1 -2.0
49 1 1 -2.0
49 1 1 -2.0
50 1 1 2.0
50 1 1 -2.0
50 1 1 -2.0
50 1 1 -2.0
50 1 1 -2.0
50 1 1 -2.0
51 1 1 2.0
51 1 1 -2.0
51 1 1 -2.0
51 1 1 -2.0
51 1 1 -2.0
51 1 1 -2.0
52 1 1 2.0
52 1 1 -2.0
52 1 1 -2.0
52 1 1 -2.0
52 1 1 -2.0
52 1 1 -2.0
53 1 1 2.0
53 1 1 -2.0
53 1 1 -2.0
53 1 1 -2.0
53 1 1 -2.0
53 1 1 -2.0
54 1 1 2.0
54 1 1 -2.0
54 1 1 -2.0
54 1 1 -2.0
54 1 1 -2.0
54 1 1 -2.0
55 1 1 2.0
55 1 1 -2.0
55 1 1 -2.0
55 1 1 -2.0
55 1 1 -2.0
55 1 1 -2.0
56 1 1 2.0
56 1 1 -2.0
56 1 1 -2.0
56 1 1 -2.0
56 1 1 -2.0
56 1 1 -2.0
57 1 1 2.0
57 1 1 -2.0
57 1 1 -2.0
57 1 1 -2.0
57 1 1 -2.0
57 1 1 -2.0
58 1 1 2.0
58 1 1 -2.0
58 1 1 -2.0
58 1 1 -2.0
58 1 1 -2.0
58 1 1 -2.0
59 1 1 2.0
59 1 1 -2.0
59 1 1 -2.0
59 1 1 -2.0
59 1 1 -2.0
59 1 1 -2.0
60 1 1 2.0
60 1 1 -2.0
60 1 1 -2.0
60 1 1 -2.0
60 1 1 -2.0
60 1 1 -2.0
61 1 1 2.0
61 1 1 -2.0
61 1 1 -2.0
61 1 1 -2.0
61 1 1 -2.0
61 1 1 -2.0
62 1 1 2.0
62 1 1 -2.0
62 1 1 -2.0
62 1 1 -2.0
62 1 1 -2.0
62 1 1 -2.0
63 1 1 2.0
63 1 1 -2.0
63 1 1 -2.0
63 1 1 -2.0
63 1 1 -2.0
63 1 1 -2.0
64 1 1 -2.0
64 1 1 2.0
64 1 1 2.0
64 1 1 2.0
65 1 1 -2.0
65 1 1 -2.0
65 1 1 2.0
65 1 1 2.0
65 1 1 2.0
66 1 1 -2.0
66 1 1 2.0
66 1 1 -2.0
67 1 1 -2.0
67 1 1 2.0
67 1 1 -2.0
68 1 1 -2.0
68 1 1 2.0
68 1 1 -2.0
69 1 1 -2.0
69 1 1 2.0
69 1 1 2.0
69 1 1 2.0
70 1 1 -2.0
70 1 1 -2.0
70 1 1 2.0
70 1 1 2.0
70 1 1 2.0
71 1 1 -2.0
71 1 1 2.0
71 1 1 -2.0
72 1 1 -2.0
72 1 1 2.0
72 1 1 -2.0
73 1 1 -2.0
73 1 1 2.0
73 1 1 -2.0
74 1 1 -2.0
74 1 1 2.0
74 1 1 2.0
74 1 1 2.0
75 1 1 -2.0
75 1 1 -2.0
75 1 1 2.0
75 1 1 2.0
75 1 1 2.0
76 1 1 -2.0
76 1 1 2.0
76 1 1 -2.0
77 1 1 -2.0
77 1 1 2.0
77 1 1 -2.0
78 1 1 -2.0
78 1 1 2.0
78 1 1 -2.0
79 1 1 -2.0
79 1 1 2.0
79 1 1 2.0
79 1 1 2.0
80 1 1 -2.0
80 1 1 -2.0
80 1 1 2.0
80 1 1 2.0
80 1 1 2.0
81 1 1 -2.0
81 1 1 2.0
81 1 1 -2.0
82 1 1 -2.0
82 1 1 2.0
82 1 1 -2.0
83 1 1 -2.0
83 1 1 2.0
83 1 1 -2.0
84 1 1 -2.0
84 1 1 2.0
84 1 1 2.0
84 1 1 2.0
85 1 1 -2.0
85 1 1 -2.0
85 1 1 2.0
85 1 1 2.0
85 1 1 2.0
86 1 1 -2.0
86 1 1 2.0
86 1 1 -2.0
87 1 1 -2.0
87 1 1 2.0
87 1 1 -2.0
88 1 1 -2.0
88 1 1 2.0
88 1 1 -2.0
89 1 1 2.0
89 1 1 -2.0
89 1 1 -2.0
89 1 1 -2.0
89 1 1 -2.0
89 1 1 -2.0
90 1 1 -2.0
90 1 1 -2.0
90 1 1 -2.0
90 1 1 -2.0
90 1 1 -2.0
90 1 1 2.0
91 1 1 -2.0
91 1 1 -2.0
91 1 1 -2.0
91 1 1 -2.0
91 1 1 -2.0
91 1 1 2.0
92 1 1 -2.0
92 1 1 -2.0
92 1 1 -2.0
92 1 1 -2.0
92 1 1 -2.0
92 1 1 2.0
127 # number of linear terms in all constraints
1 60 -1.0
1 61 -1.0
1 62 -1.0
1 63 -1.0
1 64 -1.0
2 60 -1.0
2 65 1.0
2 66 -1.0
2 67 -1.0
2 68 -1.0
2 69 -1.0
2 70 -1.0
3 61 -1.0
3 71 1.0
3 72 -1.0
3 73 -1.0
3 74 -1.0
3 75 -1.0
3 76 -1.0
4 62 -1.0
4 77 1.0
4 78 -1.0
4 79 -1.0
4 80 -1.0
4 81 -1.0
4 82 -1.0
5 63 -1.0
5 83 1.0
5 84 -1.0
5 85 -1.0
5 86 -1.0
5 87 -1.0
5 88 -1.0
6 64 -1.0
6 89 1.0
6 90 -1.0
6 91 -1.0
6 92 -1.0
6 93 -1.0
6 94 -1.0
7 65 -1.0
7 95 1.0
8 71 -1.0
8 96 1.0
9 77 -1.0
9 97 1.0
10 83 -1.0
10 98 1.0
11 89 -1.0
11 99 1.0
12 100 -0.6
12 101 1.0
13 102 -0.6
13 103 1.0
14 104 -0.6
14 105 1.0
15 106 -0.6
15 107 1.0
16 108 -0.6
16 109 1.0
17 110 -0.6
17 111 1.0
18 112 -0.6
18 113 1.0
19 114 -0.6
19 115 1.0
20 116 -0.6
20 117 1.0
21 118 -0.6
21 119 1.0
22 66 -1.0
22 72 -1.0
22 78 -1.0
22 84 -1.0
22 90 -1.0
22 95 1.0
22 120 -1.0
23 67 -1.0
23 73 -1.0
23 79 -1.0
23 85 -1.0
23 91 -1.0
23 96 1.0
23 121 -1.0
24 68 -1.0
24 74 -1.0
24 80 -1.0
24 86 -1.0
24 92 -1.0
24 97 1.0
24 122 -1.0
25 69 -1.0
25 75 -1.0
25 81 -1.0
25 87 -1.0
25 93 -1.0
25 98 1.0
25 123 -1.0
26 70 -1.0
26 76 -1.0
26 82 -1.0
26 88 -1.0
26 94 -1.0
26 99 1.0
26 124 -1.0
27 120 -1.0
27 121 -1.0
27 122 -1.0
27 123 -1.0
27 124 -1.0
27 125 1.0
28 60 -6.0
29 61 -6.0
30 62 -6.0
31 63 -6.0
32 64 -6.0
33 50 1.0
34 51 1.0
35 52 1.0
36 53 1.0
37 54 1.0
38 55 1.0
39 56 1.0
40 57 1.0
41 58 1.0
42 59 1.0
43 125 0.3
1.79769313486232E+308 # value for infinity
0.0 # default left-hand-side value
1 # number of non-default left-hand-sides
1 -100.0
0.0 # default right-hand-side value
1 # number of non-default right-hand-sides
1 -100.0
0.0 # default variable lower bound value
0 # number of non-default variable lower bounds
10.0 # default variable upper bound value
71 # number of non-default variable upper bounds
45 10000.0
46 10000.0
47 10000.0
48 10000.0
49 10000.0
50 10000.0
51 10000.0
52 10000.0
53 10000.0
54 10000.0
55 10000.0
56 10000.0
57 10000.0
58 10000.0
59 10000.0
60 1000.0
61 1000.0
62 1000.0
63 1000.0
64 1000.0
65 1000.0
66 1000.0
67 1000.0
68 1000.0
69 1000.0
70 1000.0
71 1000.0
72 1000.0
73 1000.0
74 1000.0
75 1000.0
76 1000.0
77 1000.0
78 1000.0
79 1000.0
80 1000.0
81 1000.0
82 1000.0
83 1000.0
84 1000.0
85 1000.0
86 1000.0
87 1000.0
88 1000.0
89 1000.0
90 1000.0
91 1000.0
92 1000.0
93 1000.0
94 1000.0
95 1000.0
96 1000.0
97 1000.0
98 1000.0
99 1000.0
101 10000.0
103 10000.0
105 10000.0
107 10000.0
109 10000.0
111 10000.0
113 10000.0
115 10000.0
117 10000.0
119 10000.0
120 1000.0
121 1000.0
122 1000.0
123 1000.0
124 1000.0
125 1000.0
0.0 # default variable primal value in starting point
0 # number of non-default variable primal values in starting point
0.0 # default constraint dual value in starting point
0 # number of non-default constraint dual values in starting point
0.0 # default variable bound dual value in starting point
0 # number of non-default variable bound dual values in starting point
0 # number of non-default variable names
0 # number of non-default constraint names
